45

 0   0   0   0   0   0   0   0   0   0   0   0   0   0   0   0   0   0   0   0   0   0  30  30  30   3  30  30  30  30  31  31  31  31  31  31  31  31  13   2   3   3  19  20  19  
 0   0   0   0   3   0   0   0   0   0   0   0   0   2   0   0   0   0   0   0   0   0  30  30  30  30  30  30  30  30  31  31  31  31  31  31  31   8  18  18  10   3   6  16   9  
 0   0   0   0   0   0   0   0   0   0   0   0   0   0   0   0   0   0   0   0   0   0   2  30  30  30  30  30  30  30  31  31  31  31  31  31  31  31  17  11   7   1  17  18   9  
 0   0   0   0   0   0   0   0   0   0   0   0   0   0   0   0   0   0   0   0   0   0  30  30  30  30  30  30  30  30  31  31  31  31  31  31  31  31  17   2   6  19  12  14   4  
 0   3   0   0   0   0   0   6   0   0   0   0   0   0   0   0   0   0   0   0   0   0  30  30  30  30  30  30  30  30  31  31  31  31  31  31  31  31   1  18   8  16   3   3   6  
 0   0   0   0   0   0   0   0   0   0   0   0   0   0   0   0   0   0   0   0   0   0  30  30  30   2  30   8  30  30  31  31  31  31  31  31  31  31  16  12  15  12  19  14   7  
 0   0   0   0   0   0   0   0   0   0   0   0   0   0   0   0   0   0   0   0   0   0  30  30  30  30  30  30  30  30  31  31  31  31  31  31  31  31   1  15   1  19  19   2  13  
 0   0   0   0   6   0   0   0   0   0   0   0   0   0   0   0   0   0   0   0   0   0  30  30  30  30  30  30  30  30  31  31  31  31  31  31   6  31  14  20  10   9   6  17   7  
 0   0   0   0   0   0   0   0   0   0   0   0   0   0   0   0   0   0   0   0   0   0  28  28  28  28  28  28  28  28   1  10   5  14   8  12  11  12  25  25   1  25  25  25  25  
 0   0   0   0   0   0   0   0   0   0   0   0   0   0   0   3   0   0   0   0   0   0  28  28  28  28  28  28  28  28  13   3   5  16  15  12   8   3  25  25  25  25  25  25  25  
 0   0   0   0   0   0   0   0   0   0   0   0   0   0   0   0   0   0   0   0   0   0  28  28  28  28  28  28  28  28  17   7  12  16  11   7  20   7  25  25  25  25  25  25  25  
 0   0   0   0   0   0   0   0   0   0   0   0   0   0   0   0   0   0   0   0   0   0  28  28  28  28  28  28  28  28  14  12   6  11  16  11  14  20  25  25  25  25  25  25  25  
 0   0   0   0   0   0   0   0   0   0   0   0   0   0   0   0   0   0   0   0   0   0  28  28  28  28  28  28  28  28   5  16  19   8   2   8   1  10  25  25  25  25  25  25  25  
 0   2   0   0   0   0   0   0   0   0   0   0   0   0   0   0   0   0   0   0   9   0  28  28  28  28  28  28  28  28  11  10  13   3  14   8   5  19  25  25  25  25   3  25  25  
 0   0   0   0   0   0   0   0   0   0   0   0   0   0   0   0   0   0   0   0   0   0  28  28  28  28  28  28  28  28   7  17  14   8   7   9  20   5  25   8  25  25  25  25  25  
 0   0   0   0   0   0   0   0   0   3   0   0   0   0   0   0   0   0   0   0   0   0  17  10  18   6   5   5   6   1  28  28  28  28  28  28  28  28  31  31  31  31  31  31  31  
 0   0   0   0   0   0   0   0   0   0   0   0   0   0   0   0   0   0   0   0   0   0   9   6  19   4  13  18  20   4  28  28  28  28  28  28  28  28  31  31  31  31  31  31  31  
 0   0   0   0   0   0   0   0   0   0   0   0   0   0   0   0   0   0   0   0   0   0   6  10   4   5  16   1   8  19  28  28  28  28  28  28  28  28  31  31  31  31  31  31  31  
 0   0   0   0   0   0   0   0   0   0   0   0   0   0   0   0   0   0   0   0   0   0  13   1   2   2  11   3   9   9  28  28  28  28  28  28  28  28  31  31  31  31  31  31  31  
 0   0   0   0   0   0   0   0   0   0   0   0   0   0   0   0   0   0   0   0   0   0   3   9  13   7  19  10  11   7  28  28  28  28  28  28  28  28  31  31  31  31  31  31  31  
 0   0   0   0   0   0   0   0   0   0   0   0   0   9   0   0   0   0   0   0   0   0  19  16   1   3  16   9  11  16  28  28  28  28  28  28  28  28  31  31  31  31  31  31  31  
 0   0   0   0   0   0   0   0   0   0   0   0   0   0   0   0   0   0   0   0   0   0  19  20  14  11  16   1  17  12  28  28  28  28  28  28  28  28  31  31  31  31  31  31  31  
30  30   2  30  30  30  30  30  28  28  28  28  28  28  28  11  16  10   5  16  14  16   0   0   0   0   0   0   0   0   0   0   0   0   0   0   0   0   0   0   0   6   0   0   0  
30  30  30  30  30  30  30  30  28  28  28  28  28  28  28  19  17  16   1   9  15   5   0   0   0   0   7   0   0   0   0   0   0   0   0   0   0   0   0   0   0   0   0   0   0  
30  30  30  30  30  30  30  30  28  28  28  28  28  28  28  16  19   3  20  15   8  18   0   0   0   0   0   0   0   0   0   0   0   0   0   0   0   0   0   0   0   0   3   0   0  
 3  30  30  30  30   2  30  30  28  28  28  28  28  28  28  20  16  20  11  10  18  14   0   0   0   0   9   0   0   0   0   0   0   0   0   0   0   0   0   0   0   0   0   0   0  
30  30  30  30  30  30  30  30  28  28  28  28  28  28  28   1  20  16  16   8  16  12   0   7   0   9   0   0   0   0   0   0   4   0   0   6   0   0   0   0   0   0   0   0   0  
30  30  30  30  30   8  30  30  28  28  28  28  28  28  28  17  13  10  12  15   3  14   0   0   0   0   0   0   0   0   0   0   0   0   0   0   0   0   0   0   0   0   0   0   0  
30  30  30  30  30  30  30  30  28  28  28  28  28  28  28  18  12  15   7  16   8  14   0   0   0   0   0   0   0   0   0   0   0   0   0   0   0   0   0   0   0   0   0   0   0  
30  30  30  30  30  30  30  30  28  28  28  28  28  28  28   2   5  16  15   7  12  12   0   0   0   0   0   0   0   0   0   0   0   0   0   0   0   0   0   0   0   0   0   0   0  
31  31  31  31  31  31  31  31  10   2  15   8  10  12  20  28  28  28  28  28  28  28   0   0   0   0   0   0   0   0   0   0   0   0   0   0   0   0   0   0   0   0   0   0   0  
31  31  31  31  31  31  31  31  17  17  19   6   8  17  10  28  28  28  28  28  28  28   0   0   0   0   0   0   0   0   0   0   0   0   4   0   0   0   0   0   0   0   0   6   0  
31  31  31  31  31  31  31  31  10  18   2  17  11  19   9  28  28  28  28  28  28  28   0   0   0   0   4   0   0   0   0   0   0   0   0   0   0   0   0   0   0   7   0   0   0  
31  31  31  31  31  31  31  31  12   5  13   1   6   2  17  28  28  28  28  28  28  28   0   0   0   0   0   0   0   0   0   0   0   0   0   0   0   0   0   0   9   0   0   0   0  
31  31  31  31  31  31  31  31   1   7   7  13   2   3  10  28  28  28  28  28  28  28   0   0   0   0   0   0   0   0   0   4   0   0   0   0   0   0   0   0   0   0   0   0   0  
31  31  31  31  31  31  31  31  17  15   6   9  15  17  14  28  28  28  28  28  28  28   0   0   0   0   6   0   0   0   0   0   0   0   0   0   0   0   0   0   0   0   0   0   0  
31  31  31  31  31  31  31   6   1   4   9  14  13  18  16  28  28  28  28  28  28  28   0   0   0   0   0   0   0   0   0   0   0   0   0   0   0   0   2   0   0   0   0   0   0  
31   8  31  31  31  31  31  31  13   1   4  10   9  18   5  28  28  28  28  28  28  28   0   0   0   0   0   0   0   0   0   0   0   0   0   0   0   0   3   0   0   0   0   0   0  
18   9   6   3  17  15   3  10  25  25  25  25  25  25  25  31  31  31  31  31  31  31   0   0   0   0   0   0   0   0   0   0   0   0   0   0   2   3   0   0   0   0   0   0   0  
 2  17  16   3  12  19   3  17  25  25  25  25  25  25   8  31  31  31  31  31  31  31   0   0   0   0   0   0   0   0   0   0   0   0   0   0   0   0   0   0   0   0   0   0   0  
 7   6   8  18  12  16  20  15   1  25  25  25  25  25  25  31  31  31  31  31  31  31   0   0   0   0   0   0   0   0   0   0   0   9   0   0   0   0   0   0   0   0   0   0   0  
 7   7   1  18   1  13   6   9  25  25  25  25  25  25  25  31  31  31  31  31  31  31   6   0   0   0   0   0   0   0   0   0   7   0   0   0   0   0   0   0   0   0   0   0   4  
 3  17  13  12   6  14   5   5  25  25  25  25  25   3  25  31  31  31  31  31  31  31   0   0   3   0   0   0   0   0   0   0   0   0   0   0   0   0   0   0   0   0   0   0   0  
18  14  17  20   9   5  11   4  25  25  25  25  25  25  25  31  31  31  31  31  31  31   0   0   0   0   0   0   0   0   0   6   0   0   0   0   0   0   0   0   0   0   0   0   0  
20   7   9  10  16  18  17   9  25  25  25  25  25  25  25  31  31  31  31  31  31  31   0   0   0   0   0   0   0   0   0   0   0   0   0   0   0   0   0   0   0   4   0   0   0  

 0   5   2  15  15  20   8   9  30  30  30  30  30  30  30  26  26  26  26  26  26  26   0   0   0   0   0   0   0   0   0   0   0   0   0   0   0   0   0   0   0   0   0   0   0  
 9   0   3   8   5   4  16  17  30  30  30  30  30  30  30  26  26  26  26   9  26  26   0   0   0   0   0   0   0   0   0   0   0   0   0   0   0   0   0   0   0   0   0   0   0  
 6  18   0   6   3   9   1   4  30  30  30  30  30  30  30  26  26  26  26   5  26  26   0   0   0   0   0   0   0   0   0   0   0   0   0   0   0   0   0   0   0   0   0   4   0  
 6  14   4   0  19   8   2  13  30  30  30  30  30  30  30  26  26  26  26  26  26  26   0   0   0   0   0   0   0   0   0   0   0   0   0   0   0   0   0   0   0   0   0   0   0  
 6  10  17  12   0  16  15   1   9  30  30  30  30  30  30  26  26  26  26  26  26  26   0   0   0   0   0   0   0   8   0   0   0   0   0   0   0   0   0   0   0   0   0   5   0  
16   3  18   8   5   0  13  17  30  30  30  30  30  30   1  26  26  26  26  26  26  26   0   0   0   0   0   0   0   0   0   0   0   5   0   0   0   0   8   0   0   0   0   0   0  
 9  16   4   4   9   6   0  12  30  30  30  30  30  30  30  26  26  26  26  26  26  26   0   0   0   0   8   0   0   0   0   0   0   0   0   0   0   0   0   0   0   0   0   0   0  
10  10  20   8  19   2   3   0  30  30  30  30  30  30  30  26  26  26  26  26  26  26   0   0   0   0   0   0   0   0   0   0   0   0   0   0   0   0   0   0   0   0   0   0   0  
30  30  30  30   9  30  30  30   0  17   6  13   2  11  20  30  30  30  30   5  30  30   0   0   0   0   0   0   0   0   0   0   0   0   0   0   0   0   0   0   0   0   0   0   0  
30  30  30  30  30  30  30  30   1   0  20  16  15  15   6  30  30  30  30  30  30  30   0   0   0   0   0   0   0   0   0   0   0   0   0   0   0   0   0   0   0   0   0   0   0  
30  30  30  30  30  30  30  30   6   2   0  20  16   9  12  30  30  30  30  30  30  30   9   0   0   0   0   0   0   0   0   0   0   0   0   7   0   0   0   0   0   0   0   0   0  
30  30  30  30  30  30  30  30   1   5  14   0  15   4  10  30  30  30  30  30  30  30   0   0   0   0   0   0   0   0   0   0   0   0   0   0   0   0   0   0   0   0   0   0   0  
30  30  30  30  30  30  30  30   9   6  16  17   0   3   8  30  30  30  30  30  30  30   0   8   0   0   0   0   0   0   0   0   0   0   0   0   0   0   0   7   0   0   0   0   0  
30  30  30  30  30  30  30  30  11  19  18  19  20   0   2  30  30  30  30  30  30  30   0   0   0   0   8   0   0   0   0   0   0   0   0   0   0   0   0   0   0   0   0   0   0  
30  30  30  30  30   1  30  30  10   8   5  10  17   8   0  30  30  30  30  30  30  30   0   1   0   0   0   0   0   0   0   0   0   0   0   0   0   0   0   0   0   0   0   0   0  
26  26  26  26  26  26  26  26  30  30  30  30  30  30  30   0  10   5  13  19  15  19   0   0   0   0   0   0   0   0   0   0   0   0   0   0   0   0   0   0   0   0   0   0   0  
26  26  26  26  26  26  26  26  30  30  30  30  30  30  30   3   0   2   5   3  11   8   5   0   0   0   0   0   0   0   0   0   0   7   0   0   0   0   0   0   0   0   0   0   0  
26  26  26  26  26  26  26  26  30  30  30  30  30  30  30   5   9   0   7  10   9  10   0   0   0   0   0   0   0   0   0   0   0   5   0   0   0   0   0   0   0   0   0   0   0  
26  26  26  26  26  26  26  26  30  30  30  30  30  30  30   2   9  12   0  14  18  14   0   0   0   0   0   0   0   0   0   0   0   0   0   7   0   0   0   0   0   0   0   0   0  
26   9   5  26  26  26  26  26   5  30  30  30  30  30  30  13   3   4  12   0   2  15   0   0   0   0   0   0   0   0   0   0   0   0   0   0   0   0   0   0   0   0   0   0   0  
26  26  26  26  26  26  26  26  30  30  30  30  30  30  30  18   3   4  17  18   0  19   0   0   0   0   0   0   0   0   0   0   4   0   0   0   0   0   0   0   0   0   0   0   0  
26  26  26  26  26  26  26  26  30  30  30  30  30  30  30   3   8  20   6  17  17   0   0   6   0   0   0   0   0   0   0   0   0   0   0   0   0   0   6   0   0   0   0   0   0  
 0   0   0   0   0   0   0   0   0   0   9   0   0   0   0   0   5   0   0   0   0   0   3  19   6   1  18   3  12   5  31  31  31  31  31  31  31  31  26  26  26  26  26  26  26  
 0   0   0   0   0   0   0   0   0   0   0   0   8   0   1   0   0   0   0   0   0   6  13   6  13  12   8   4  14   4  31  31  31  31  31  31  31  31  26  26  26  26  26  26  26  
 0   0   0   0   0   0   0   0   0   0   0   0   0   0   0   0   0   0   0   0   0   0   5  18   4   9  16  13  15  18  31  31  31  31  31  31  31  31  26  26  26  26  26  26  26  
 0   0   0   0   0   0   0   0   0   0   0   0   0   0   0   0   0   0   0   0   0   0  15  14  12   6  10   8  19   6  31  31  31  31  31  31  31  31  26  26  26  26  26  26  26  
 0   0   0   0   0   0   8   0   0   0   0   0   0   8   0   0   0   0   0   0   0   0  14  13  11  16  14   2  19  10  31  31  31  31  31  31  31  31  26  26  26  26  26  26  26  
 0   0   0   0   0   0   0   0   0   0   0   0   0   0   0   0   0   0   0   0   0   0  14   8  17  12  15   3  17  20  31  31  31  31  31  31  31  31  26  26  26  26  26  26  26  
 0   0   0   0   0   0   0   0   0   0   0   0   0   0   0   0   0   0   0   0   0   0  12  14  10   8  15   5   9  13  31  31   2  31  31  31  31   4  26  26  26  26  26  26  26  
 0   0   0   0   8   0   0   0   0   0   0   0   0   0   0   0   0   0   0   0   0   0  13  16   6   6  16  14  14   7  31  31  31  31  31  31  31  31  26  26  26  26  26  26  26  
 0   0   0   0   0   0   0   0   0   0   0   0   0   0   0   0   0   0   0   0   0   0  31  31  31  31  31  31  31  31   1   1   2   9  17  15   6   8  26  26  26  26  26  26  26  
 0   0   0   0   0   0   0   0   0   0   0   0   0   0   0   0   0   0   0   0   0   0  31  31  31  31  31  31  31  31   2   1   2   2  14   5  18  13  26  26  26  26  26  26  26  
 0   0   0   0   0   0   0   0   0   0   0   0   0   0   0   0   0   0   0   0   4   0  31  31  31  31  31  31   2  31   7  11   2   8   7  18  13  13  26  26  26  26  26  26  26  
 0   0   0   0   0   5   0   0   0   0   0   0   0   0   0   0   7   5   0   0   0   0  31  31  31  31  31  31  31  31   1   7   5   6  12   9   3  12  26  26  26  26  26  26  26  
 0   0   0   0   0   0   0   0   0   0   0   0   0   0   0   0   0   0   0   0   0   0  31  31  31  31  31  31  31  31   3   8  19   5  20   8  11  12  26  26  26  26  26  26  26  
 0   0   0   0   0   0   0   0   0   0   7   0   0   0   0   0   0   0   7   0   0   0  31  31  31  31  31  31  31  31   8   8  13   7   8  13   2   5  26  26  26  26  26  26   6  
 0   0   0   0   0   0   0   0   0   0   0   0   0   0   0   0   0   0   0   0   0   0  31  31  31  31  31  31  31  31  12  19  16  14  10   2   3   1  26  26  26  26  26  26  26  
 0   0   0   0   0   0   0   0   0   0   0   0   0   0   0   0   0   0   0   0   0   0  31  31  31  31  31  31   4  31   1  20  10   7   8  14   1  10  26  26  26  26  26  26  26  
 0   0   0   0   0   8   0   0   0   0   0   0   0   0   0   0   0   0   0   0   0   6  26  26  26  26  26  26  26  26  26  26  26  26  26  26  26  26  15  10   4  17   2  16   5  
 0   0   0   0   0   0   0   0   0   0   0   0   7   0   0   0   0   0   0   0   0   0  26  26  26  26  26  26  26  26  26  26  26  26  26  26  26  26   5   1   2  10   1  18   4  
 0   0   0   0   0   0   0   0   0   0   0   0   0   0   0   0   0   0   0   0   0   0  26  26  26  26  26  26  26  26  26  26  26  26  26  26  26  26   6  16  11   8  19  16   1  
 0   0   0   0   0   0   0   0   0   0   0   0   0   0   0   0   0   0   0   0   0   0  26  26  26  26  26  26  26  26  26  26  26  26  26  26  26  26  18  16   8   9   3   1  14  
 0   0   0   0   0   0   0   0   0   0   0   0   0   0   0   0   0   0   0   0   0   0  26  26  26  26  26  26  26  26  26  26  26  26  26  26  26  26  13  17   1  12  19  16   2  
 0   0   4   0   5   0   0   0   0   0   0   0   0   0   0   0   0   0   0   0   0   0  26  26  26  26  26  26  26  26  26  26  26  26  26  26  26  26   3   8  13  18  12   6  13  
 0   0   0   0   0   0   0   0   0   0   0   0   0   0   0   0   0   0   0   0   0   0  26  26  26  26  26  26  26  26  26  26  26  26  26   6  26  26   1   8  17   6  17  17   4  
